#n B3LYP/6-31G(d) Opt

 Title

0 1
C  
C       1        1.39881
C       2        1.39425     1      120.16424
C       3        1.40529     2      120.33344     1        0.05219
C       4        1.40538     3      119.18851     2      359.95385
C       5        1.39442     4      120.32961     3        0.02562
C       4        1.48313!    3      120.37194!    2      179.97438!
N       7        1.34191     4      118.12045!    3        1.04697!   Ph-TRZ
C       8        1.34180     7      116.19320     4      179.97438!
N       9        1.34395     8      123.87602     7        0.15279
C      10        1.33948     9      115.76541     8      359.79882
N      11        1.33944    10      124.53015     9        0.03803
C      11        1.48822!   10      117.70003!    9      180.02562!
C      13        1.40145    11      120.08922!   10        3.55655!   TRZ-Ph
C      14        1.39772    13      120.10899    11      180.54975!
C      15        1.40041    14      120.13438    13      359.12975
C      16        1.40041    15      119.75732    14        0.36550
C      17        1.39763    16      120.17535    15        0.52083
N      17        1.42043!   16      119.84005!   15      179.97438!
C      19        1.40078    17      125.61232!   16      122.71268!   Ph-Cz
C      20        1.39884    19      129.44131    17      358.59290!
C      21        1.39526    20      117.71657    19      181.18901
C      22        1.40729    21      121.40581    20        0.17108
C      23        1.39379    22      120.54855    21        0.35645
C      24        1.40103    23      119.18251    22      359.67902
C      25        1.44891    24      133.61296    23      178.87145
C      26        1.40095    25      133.59767    24        1.68791
C      27        1.39372    26      119.17823    25      178.91015
C      28        1.40722    27      120.55061    26      359.62121
C      29        1.39519    28      121.40591    27        0.41068
C      30        1.39882    29      117.72369    28        0.19095
N      15        1.42021!   14      119.96093!   13      179.64405!
C      32        1.40113    15      125.95848!   14      122.96261!   Ph-Cz
C      33        1.39881    32      129.47780    15      358.32390!
C      34        1.39520    33      117.72493    32      181.18158
C      35        1.40718    34      121.40971    33        0.18689
C      36        1.39370    35      120.54803    34        0.41641
C      37        1.40094    36      119.17491    35      359.62614
C      38        1.44896    37      133.57589    36      178.74217
C      39        1.40108    38      133.61407    37        1.67108
C      40        1.39378    39      119.17892    38      179.07456
C      41        1.40726    40      120.54922    39      359.65191
C      42        1.39528    41      121.40346    40        0.34748
C      43        1.39880    42      117.72197    41        0.21165
C       9        1.48313!    8      118.15009!    7      180.02562!
C      45        1.40530     9      120.41287!    8        0.46503!   TRZ-Ph
C      46        1.39433    45      120.33164     9      179.97438!
C      47        1.39877    46      120.16975    45        0.02562
C      48        1.39863    47      119.81686    46      359.97438
C      49        1.39441    48      120.16153    47      359.97438
H       1        1.08713     2      120.08954     3      179.97438
H       2        1.08691     1      120.09233     3      179.97438
H       3        1.08429     2      120.63089     1      180.02562
H       5        1.08423     4      119.14092     3      180.02562
H       6        1.08684     5      119.70222     4      180.02562
H      14        1.08328    13      119.60739    18     -178.97627    meow
H      16        1.08513    15      120.13739    14      180.33415
H      18        1.08335    17      120.27300    16      178.51517
H      21        1.08557    20      121.49918    19        1.06266
H      22        1.08691    21      119.07827    20      180.02562
H      23        1.08658    22      119.59854    21      180.02562
H      24        1.08723    23      120.41591    22      179.42469
H      27        1.08723    26      120.40812    25      359.13361
H      28        1.08654    27      119.85378    26      179.90485
H      29        1.08685    28      119.52324    27      180.49587
H      30        1.08561    29      120.75101    28      180.51128
H      34        1.08554    33      121.53615    32        0.80805
H      35        1.08685    34      119.07160    33      180.09013
H      36        1.08654    35      119.59660    34      180.12953
H      37        1.08722    36      120.42035    35      179.37317
H      40        1.08723    39      120.40225    38      359.28562
H      41        1.08658    40      119.85209    39      179.97438
H      42        1.08690    41      119.52479    40      180.44541
H      43        1.08550    42      120.77406    41      180.30187
H      46        1.08430    45      119.05000    50     -179.97489    meow
H      47        1.08692    46      119.73749    45      180.02562
H      48        1.08712    47      120.08957    46      180.02562
H      49        1.08684    48      120.13668    47      179.97438
H      50        1.08420    49      120.52043    48      179.97438

